p cnf 43 127
-41 0
-41 0
-43 0
1 2 0
-2 -1 0
1 2 0
-2 -1 0
3 4 0
-4 -3 0
3 4 0
-4 -3 0
5 6 0
-6 -5 0
5 6 0
-6 -5 0
7 8 0
-8 -7 0
7 8 0
-8 -7 0
9 10 0
-10 -9 0
9 10 0
-10 -9 0
11 12 0
-12 -11 0
11 12 0
-12 -11 0
13 14 0
-14 -13 0
13 14 0
-14 -13 0
15 16 0
-16 -15 0
15 16 0
-16 -15 0
17 18 0
-18 -17 0
17 18 0
-18 -17 0
19 20 0
-20 -19 0
19 20 0
-20 -19 0
21 22 0
-22 -21 0
21 22 0
-22 -21 0
23 24 0
-24 -23 0
23 24 0
-24 -23 0
25 26 0
-26 -25 0
25 26 0
-26 -25 0
27 28 0
-28 -27 0
27 28 0
-28 -27 0
29 30 0
-30 -29 0
29 30 0
-30 -29 0
31 32 0
-32 -31 0
31 32 0
-32 -31 0
33 34 0
-34 -33 0
33 34 0
-34 -33 0
35 36 0
-36 -35 0
35 36 0
-36 -35 0
37 38 0
-38 -37 0
37 38 0
-38 -37 0
39 40 0
-40 -39 0
39 40 0
-40 -39 0
41 42 0
-42 -41 0
41 42 0
-42 -41 0
-1 1 0
-3 3 0
-5 5 0
-7 7 0
-9 9 0
-11 11 0
-13 13 0
-15 15 0
-17 17 0
-19 19 0
-21 21 0
-23 23 0
-25 25 0
-27 27 0
-29 29 0
-31 31 0
-33 33 0
-35 35 0
-37 37 0
-39 39 0
-1 1 0
-3 3 0
-5 5 0
-7 7 0
-9 9 0
-11 11 0
-13 13 0
-15 15 0
-17 17 0
-19 19 0
-21 21 0
-23 23 0
-25 25 0
-27 27 0
-29 29 0
-31 31 0
-33 33 0
-35 35 0
-37 37 0
-39 39 0
